c NeuroCodeBench 2.0 CNF formula with verdict Unsat
p cnf 23 77
1 11 -21 2 -23 0
1 -11 -22 3 5 21 17 -10 -14 12 2 0
-1 -18 -5 8 -13 0
1 -11 -22 -3 -7 -18 -20 -17 0
1 11 -21 -2 -14 -19 0
1 -11 -22 3 5 -21 10 0
1 -11 -22 3 -5 0
-1 18 16 21 -12 19 -7 -4 5 -9 0
-1 18 16 21 -12 19 -7 -4 5 9 0
-1 18 16 21 -12 19 -7 4 17 15 0
1 -11 -22 -3 -7 18 -15 23 0
-1 -18 5 11 -8 -21 0
1 -11 -22 3 5 21 17 -10 -14 -12 -2 0
-1 18 16 21 -12 -19 4 20 0
-1 18 16 21 12 0
1 -11 22 -7 0
1 -11 22 7 -6 -19 0
-1 18 16 -21 -13 -2 0
-1 18 -16 17 0
1 -11 -22 -3 7 19 -5 -10 23 21 0
1 -11 -22 -3 -7 -18 -20 17 0
-1 18 16 -21 13 10 0
-1 18 -16 -17 6 -5 21 -11 0
-1 -18 -5 -8 -10 0
-1 18 16 21 -12 19 -7 4 17 -15 0
1 -11 -22 -3 -7 -18 20 -9 0
1 -11 -22 3 5 21 17 10 12 16 4 0
1 -11 -22 -3 -7 -18 20 9 0
1 -11 -22 3 5 21 17 -10 -14 -12 2 0
-1 18 16 21 -12 19 -7 -4 -5 0
1 11 21 0
1 -11 -22 3 5 21 -17 0
1 11 -21 -2 -14 19 -3 0
-1 18 -16 -17 6 5 0
1 -11 -22 -3 -7 18 -15 -23 14 0
-1 18 16 -21 -13 2 0
-1 -18 -5 -8 10 0
1 -11 22 7 6 23 0
1 -11 -22 -3 7 -19 0
-1 18 16 21 -12 19 -7 4 -17 0
1 -11 22 7 6 -23 0
-1 18 16 21 -12 -19 -4 0
-1 18 16 21 -12 19 7 5 -11 0
1 -11 -22 3 5 21 17 10 12 -16 0
1 -11 -22 -3 -7 18 15 0
-1 -18 5 -11 0
1 -11 -22 3 5 21 17 10 -12 0
1 -11 -22 3 5 -21 -10 0
1 -11 -22 3 5 21 17 -10 14 20 -2 0
-1 -18 5 11 8 7 0
-1 -18 -5 8 13 0
1 -11 -22 -3 7 19 -5 10 0
1 -11 -22 -3 7 19 5 0
-1 18 16 21 -12 19 7 -5 0
1 -11 22 7 -6 19 0
1 11 -21 -2 -14 19 3 0
1 11 -21 2 23 0
-1 18 -16 -17 6 -5 -21 -9 0
-1 18 -16 -17 -6 0
-1 18 16 21 -12 19 7 5 11 0
-1 18 -16 -17 6 -5 -21 9 0
1 -11 -22 -3 -7 18 -15 -23 -14 0
1 -11 -22 3 5 21 17 -10 -14 12 -2 23 0
1 -11 -22 -3 7 19 -5 -10 23 -21 0
1 -11 -22 3 5 21 17 -10 -14 12 -2 -23 7 0
1 -11 -22 3 5 21 17 -10 14 -20 0
-1 -18 5 11 -8 21 0
-1 18 16 21 -12 -19 4 -20 0
-1 -18 5 11 8 -7 0
1 -11 -22 3 5 21 17 10 12 16 -4 0
1 -11 -22 3 5 21 17 -10 14 20 2 0
-1 18 -16 -17 6 -5 21 11 0
1 -11 -22 3 5 21 17 -10 -14 12 -2 -23 -7 0
1 11 -21 -2 14 0
1 -11 -22 -3 7 19 -5 -10 -23 -9 0
1 -11 -22 -3 7 19 -5 -10 -23 9 0
-1 18 16 -21 13 -10 0
